Test: fpga11_20_uns_rcr.cnf
Options: -no-inverting-opt -activity-nl-freq=1
WARNING: for repeatability, setting FPU to use double precision
============================[ Problem Statistics ]=============================
|                                                                             |
|  Number of symmetries:           59                                         |
|  Number of invertingSyms:         0                                         |
|  Number of variables:           440                                         |
|  Number of clauses:            4220                                         |
|  Parse time:                   0.00 s                                       |
|                                                                             |
============================[ Search Statistics ]==============================
| Conflicts |          ORIGINAL         |          LEARNT          | Progress |
|           |    Vars  Clauses Literals |    Limit  Clauses Lit/Cl |          |
===============================================================================
|       100 |     440     4220     8800 |     1547      138     68 |  0.001 % |
|       250 |     440     4220     8800 |     1702      399     60 |  0.001 % |
|       475 |     440     4220     8800 |     1872      836     56 |  0.001 % |
|       812 |     440     4220     8800 |     2059     1503     54 |  0.001 % |
|      1318 |     440     4220     8800 |     2265     1367     50 |  0.001 % |
|      2077 |     440     4220     8800 |     2491     1701     48 |  0.001 % |
|      3216 |     440     4220     8800 |     2741     1450     45 |  0.001 % |
|      4924 |     440     4220     8800 |     3015     1572     46 |  0.001 % |
|      7486 |     440     4220     8800 |     3316     1853     47 |  0.001 % |
===============================================================================
restarts              : 40
conflicts             : 9407           (23754 /sec)
symconflicts          : 1839           (4644 /sec)
decisions             : 17882          (0.00 % random) (45154 /sec)
propagations          : 318747         (804868 /sec)
sympropagations       : 13462          (33993 /sec)
conflict literals     : 539483         (5.98 % deleted)
literals     : 539483         (5.98 % deleted)

HEURISTIC USAGES
random                : 0           
activity w/ lookahead : 0           
activity no lookahead : 17882       
original sp           : 0           
sym count             : 0           

Memory used           : 6.00 MB
CPU time              : 0.396024 s

UNSATISFIABLE
